proyfinal/src/viki/013/experimentInOfficeAgust.take6.output/f1bb2c17-e7a3-4636-847b-d4a29694b8db.als.dat
{'cnf.clauses': '118081',
 'cnf.totvars': '69608',
 'conflict literals': '128',
 'conflicts': '40',
 'decisions': '13305',
 'memused.mb': '16.82',
 'outcome': 'UNSAT',
 'propagations': '44682',
 'restarts': '1',
 'solver.msecs': 31,
 'task.msecs': 65}
