proyfinal/src/viki/013/experimentInOfficeAgust.take6.output/f1bb2c17-e7a3-4636-847b-d4a29694b8db.als.out
Reading from standard input... Use '--help' for help.
============================[ Problem Statistics ]=============================
|                                                                             |
|  Number of variables:         69608                                         |
|  Number of clauses:          118081                                         |
|  Parse time:                   0.02 s                                       |
|                                                                             |
============================[ Search Statistics ]==============================
| Conflicts |          ORIGINAL         |          LEARNT          | Progress |
|           |    Vars  Clauses Literals |    Limit  Clauses Lit/Cl |          |
===============================================================================
===============================================================================
restarts              : 1
conflicts             : 40             (1254 /sec)
decisions             : 13305          (0.00 % random) (417189 /sec)
propagations          : 44682          (1401041 /sec)
conflict literals     : 128            (0.00 % deleted)
Memory used           : 16.82 MB
CPU time              : 0.031892 s

UNSATISFIABLE
